17 250
1 7 38
2 76 36
3 15 77
4 12 80
5 45 5
6 4 41
7 66 61
8 37 42
9 29 5
10 68 67
11 69 19
12 80 58
13 66 71
14 86 49
15 21 98
16 65 86
17 11 5
16
5 3
17 3
13 10
4 10
9 5
15 8
14 3
12 17
4 17
2 1
11 5
11 13
8 14
8 17
15 11
13 8
